1 51 24
2 36 22
3 21 42
4 45 36
5 55 20
6 33 32
7 50 59
8 55 45
9 26 59
10 40 66
11 55 65
12 35 51
13 62 35
14 62 57
15 62 24
16 21 36
17 33 44
18 91 56
19 62 48
20 66 14
21 44 13
22 25 61
23 11 28
24 17 43
25 17 64
26 41 46
27 55 34
28 35 16
29 52 26
30 43 26
31 31 76
32 22 53
33 26 29
34 50 40
35 55 50
36 54 10
37 60 15
38 47 66
39 30 60
40 30 50
41 12 17
42 15 14
43 1 19
44 21 48
45 50 30
46 51 42
47 50 15
48 48 21
49 12 38
50 15 56
51 29 39
52 54 38
53 5 57
54 6 1
55 10 70
56 6 26
57 5 7
58 44 69
59 70 61
60 64 42
61 36 62
62 30 21
63 20 32
64 5 56
65 50 72
66 57 72
67 45 49
68 38 12
69 50 41
70 66 82
71 59 58
72 35 60
73 27 24
74 2 20
75 43 37
76 23 56